;; benchmark_25=2 V0=2 V1=2 V2=2 V3=2 V4=2 V6=2 V8=2 V9=2 V10=2 V11=2 V12=2 V14=2 V15=2 V16=2 V17=2 V18=2 V19=2 V20=2 V21=2 V24=2 V25=2 V26=2 V27=2 V28=2 V29=2 V31=2 V32=2 V33=2 V34=2 V35=2 V36=2 V38=2 V39=2 V40=2 V42=2 V43=2 V44=2 V45=2 V46=2 V47=2 V49=2 V50=2 V51=2 V52=2 V53=2 V54=2 V55=2 V56=2 V57=2 V58=2 V59=2 V61=2 V62=2 V63=2 V64=2 V65=2 V66=2 V67=2 V68=2 V69=2 V70=2 V71=2 V72=2 V74=2 V75=2 V76=2 V77=2 V78=2 V79=2 V80=2 V81=2 V82=2 V83=2 V84=2 V85=2 V86=2 V87=2 V88=2 V90=2 V91=2 V92=2 V93=2 V94=2 V96=2 V97=2 V98=2 V99=2 V100=2 V101=2 V102=2 V103=2 V104=2 V105=2 V106=2 V107=2 V109=2 V110=2 V111=2 V112=2 V114=2 V116=2 V117=2 V118=2 V119=2 V120=2 V121=2 V122=2 V123=2 V124=2 V125=2 V126=2 V127=2 V128=2 V129=2 V130=2 V131=2 V132=2 V133=2 MV5=4 MV7=6 MV13=3 MV22=6 MV23=3 MV30=3 MV37=3 MV41=5 MV48=5 MV60=4 MV73=3 MV89=6 MV95=6 MV108=6 MV113=6 MV115=3
;; 
;; 
(set-logic QF_BV)
(declare-fun benchmark_25 () Bool)
(declare-fun V0 () Bool)
(declare-fun V1 () Bool)
(declare-fun V2 () Bool)
(declare-fun V3 () Bool)
(declare-fun V4 () Bool)
(declare-fun V6 () Bool)
(declare-fun V8 () Bool)
(declare-fun V9 () Bool)
(declare-fun V10 () Bool)
(declare-fun V11 () Bool)
(declare-fun V12 () Bool)
(declare-fun V14 () Bool)
(declare-fun V15 () Bool)
(declare-fun V16 () Bool)
(declare-fun V17 () Bool)
(declare-fun V18 () Bool)
(declare-fun V19 () Bool)
(declare-fun V20 () Bool)
(declare-fun V21 () Bool)
(declare-fun V24 () Bool)
(declare-fun V25 () Bool)
(declare-fun V26 () Bool)
(declare-fun V27 () Bool)
(declare-fun V28 () Bool)
(declare-fun V29 () Bool)
(declare-fun V31 () Bool)
(declare-fun V32 () Bool)
(declare-fun V33 () Bool)
(declare-fun V34 () Bool)
(declare-fun V35 () Bool)
(declare-fun V36 () Bool)
(declare-fun V38 () Bool)
(declare-fun V39 () Bool)
(declare-fun V40 () Bool)
(declare-fun V42 () Bool)
(declare-fun V43 () Bool)
(declare-fun V44 () Bool)
(declare-fun V45 () Bool)
(declare-fun V46 () Bool)
(declare-fun V47 () Bool)
(declare-fun V49 () Bool)
(declare-fun V50 () Bool)
(declare-fun V51 () Bool)
(declare-fun V52 () Bool)
(declare-fun V53 () Bool)
(declare-fun V54 () Bool)
(declare-fun V55 () Bool)
(declare-fun V56 () Bool)
(declare-fun V57 () Bool)
(declare-fun V58 () Bool)
(declare-fun V59 () Bool)
(declare-fun V61 () Bool)
(declare-fun V62 () Bool)
(declare-fun V63 () Bool)
(declare-fun V64 () Bool)
(declare-fun V65 () Bool)
(declare-fun V66 () Bool)
(declare-fun V67 () Bool)
(declare-fun V68 () Bool)
(declare-fun V69 () Bool)
(declare-fun V70 () Bool)
(declare-fun V71 () Bool)
(declare-fun V72 () Bool)
(declare-fun V74 () Bool)
(declare-fun V75 () Bool)
(declare-fun V76 () Bool)
(declare-fun V77 () Bool)
(declare-fun V78 () Bool)
(declare-fun V79 () Bool)
(declare-fun V80 () Bool)
(declare-fun V81 () Bool)
(declare-fun V82 () Bool)
(declare-fun V83 () Bool)
(declare-fun V84 () Bool)
(declare-fun V85 () Bool)
(declare-fun V86 () Bool)
(declare-fun V87 () Bool)
(declare-fun V88 () Bool)
(declare-fun V90 () Bool)
(declare-fun V91 () Bool)
(declare-fun V92 () Bool)
(declare-fun V93 () Bool)
(declare-fun V94 () Bool)
(declare-fun V96 () Bool)
(declare-fun V97 () Bool)
(declare-fun V98 () Bool)
(declare-fun V99 () Bool)
(declare-fun V100 () Bool)
(declare-fun V101 () Bool)
(declare-fun V102 () Bool)
(declare-fun V103 () Bool)
(declare-fun V104 () Bool)
(declare-fun V105 () Bool)
(declare-fun V106 () Bool)
(declare-fun V107 () Bool)
(declare-fun V109 () Bool)
(declare-fun V110 () Bool)
(declare-fun V111 () Bool)
(declare-fun V112 () Bool)
(declare-fun V114 () Bool)
(declare-fun V116 () Bool)
(declare-fun V117 () Bool)
(declare-fun V118 () Bool)
(declare-fun V119 () Bool)
(declare-fun V120 () Bool)
(declare-fun V121 () Bool)
(declare-fun V122 () Bool)
(declare-fun V123 () Bool)
(declare-fun V124 () Bool)
(declare-fun V125 () Bool)
(declare-fun V126 () Bool)
(declare-fun V127 () Bool)
(declare-fun V128 () Bool)
(declare-fun V129 () Bool)
(declare-fun V130 () Bool)
(declare-fun V131 () Bool)
(declare-fun V132 () Bool)
(declare-fun V133 () Bool)
(declare-fun MV5 () (_ BitVec 2))
(declare-fun MV5_0 () (_ Bool))
(declare-fun MV5_1 () (_ Bool))
(declare-fun MV7 () (_ BitVec 3))
(assert (and (bvuge MV7 (_ bv0 3)) (bvult MV7 (_ bv6 3))))
(declare-fun MV7_0 () (_ Bool))
(declare-fun MV7_1 () (_ Bool))
(declare-fun MV7_2 () (_ Bool))
(declare-fun MV13 () (_ BitVec 2))
(assert (and (bvuge MV13 (_ bv0 2)) (bvult MV13 (_ bv3 2))))
(declare-fun MV13_0 () (_ Bool))
(declare-fun MV13_1 () (_ Bool))
(declare-fun MV22 () (_ BitVec 3))
(assert (and (bvuge MV22 (_ bv0 3)) (bvult MV22 (_ bv6 3))))
(declare-fun MV22_0 () (_ Bool))
(declare-fun MV22_1 () (_ Bool))
(declare-fun MV22_2 () (_ Bool))
(declare-fun MV23 () (_ BitVec 2))
(assert (and (bvuge MV23 (_ bv0 2)) (bvult MV23 (_ bv3 2))))
(declare-fun MV23_0 () (_ Bool))
(declare-fun MV23_1 () (_ Bool))
(declare-fun MV30 () (_ BitVec 2))
(assert (and (bvuge MV30 (_ bv0 2)) (bvult MV30 (_ bv3 2))))
(declare-fun MV30_0 () (_ Bool))
(declare-fun MV30_1 () (_ Bool))
(declare-fun MV37 () (_ BitVec 2))
(assert (and (bvuge MV37 (_ bv0 2)) (bvult MV37 (_ bv3 2))))
(declare-fun MV37_0 () (_ Bool))
(declare-fun MV37_1 () (_ Bool))
(declare-fun MV41 () (_ BitVec 3))
(assert (and (bvuge MV41 (_ bv0 3)) (bvult MV41 (_ bv5 3))))
(declare-fun MV41_0 () (_ Bool))
(declare-fun MV41_1 () (_ Bool))
(declare-fun MV41_2 () (_ Bool))
(declare-fun MV48 () (_ BitVec 3))
(assert (and (bvuge MV48 (_ bv0 3)) (bvult MV48 (_ bv5 3))))
(declare-fun MV48_0 () (_ Bool))
(declare-fun MV48_1 () (_ Bool))
(declare-fun MV48_2 () (_ Bool))
(declare-fun MV60 () (_ BitVec 2))
(declare-fun MV60_0 () (_ Bool))
(declare-fun MV60_1 () (_ Bool))
(declare-fun MV73 () (_ BitVec 2))
(assert (and (bvuge MV73 (_ bv0 2)) (bvult MV73 (_ bv3 2))))
(declare-fun MV73_0 () (_ Bool))
(declare-fun MV73_1 () (_ Bool))
(declare-fun MV89 () (_ BitVec 3))
(assert (and (bvuge MV89 (_ bv0 3)) (bvult MV89 (_ bv6 3))))
(declare-fun MV89_0 () (_ Bool))
(declare-fun MV89_1 () (_ Bool))
(declare-fun MV89_2 () (_ Bool))
(declare-fun MV95 () (_ BitVec 3))
(assert (and (bvuge MV95 (_ bv0 3)) (bvult MV95 (_ bv6 3))))
(declare-fun MV95_0 () (_ Bool))
(declare-fun MV95_1 () (_ Bool))
(declare-fun MV95_2 () (_ Bool))
(declare-fun MV108 () (_ BitVec 3))
(assert (and (bvuge MV108 (_ bv0 3)) (bvult MV108 (_ bv6 3))))
(declare-fun MV108_0 () (_ Bool))
(declare-fun MV108_1 () (_ Bool))
(declare-fun MV108_2 () (_ Bool))
(declare-fun MV113 () (_ BitVec 3))
(assert (and (bvuge MV113 (_ bv0 3)) (bvult MV113 (_ bv6 3))))
(declare-fun MV113_0 () (_ Bool))
(declare-fun MV113_1 () (_ Bool))
(declare-fun MV113_2 () (_ Bool))
(declare-fun MV115 () (_ BitVec 2))
(assert (and (bvuge MV115 (_ bv0 2)) (bvult MV115 (_ bv3 2))))
(declare-fun MV115_0 () (_ Bool))
(declare-fun MV115_1 () (_ Bool))
(assert benchmark_25)
(assert (or (not V3) (not V25)))
(assert (or (not V2) (not (= MV22 (_ bv0 3)))))
(assert (or (not V18) (not V21)))
(assert (or (not V0) V20))
(assert (or (not V11) V14))
(assert (or V16 (not V26)))
(assert (or (not V21) V26))
(assert (or (not (= MV7 (_ bv3 3))) V26))
(assert (or (not V8) V24))
(assert (or V15 V24))
(assert (or (not V2) (not V26)))
(assert (or (not V6) V19))
(assert (or V0 (not V15)))
(assert (or (not V11) (not V20)))
(assert (or (not (= MV5 (_ bv0 2))) (not (= MV7 (_ bv4 3)))))
(assert (or (not V17) (not V21)))
(assert (or (not V9) (not (= MV13 (_ bv0 2)))))
(assert (or V16 (not (= MV22 (_ bv5 3)))))
(assert (or V1 V19))
(assert (or V20 (not (= MV22 (_ bv4 3)))))
(assert (or (not V10) (not V18)))
(assert (or (not V10) V16))
(assert (or V19 (not V25)))
(assert (or (not V6) (or (not V15) (not V18))))
(assert (or V12 (or (not (= MV23 (_ bv2 2))) V26)))
(assert (or V21 (or (not V24) V26)))
(assert (or V4 (or (not (= MV13 (_ bv2 2))) (or V15 V25))))
(assert (= MV5_0 (= (bvand MV5 (_ bv1 2)  ) (_ bv1 2))))
(assert (= MV5_1 (= (bvand MV5 (_ bv2 2)  ) (_ bv2 2))))
(assert (= MV7_0 (= (bvand MV7 (_ bv1 3)  ) (_ bv1 3))))
(assert (= MV7_1 (= (bvand MV7 (_ bv2 3)  ) (_ bv2 3))))
(assert (= MV7_2 (= (bvand MV7 (_ bv4 3)  ) (_ bv4 3))))
(assert (= MV13_0 (= (bvand MV13 (_ bv1 2)  ) (_ bv1 2))))
(assert (= MV13_1 (= (bvand MV13 (_ bv2 2)  ) (_ bv2 2))))
(assert (= MV22_0 (= (bvand MV22 (_ bv1 3)  ) (_ bv1 3))))
(assert (= MV22_1 (= (bvand MV22 (_ bv2 3)  ) (_ bv2 3))))
(assert (= MV22_2 (= (bvand MV22 (_ bv4 3)  ) (_ bv4 3))))
(assert (= MV23_0 (= (bvand MV23 (_ bv1 2)  ) (_ bv1 2))))
(assert (= MV23_1 (= (bvand MV23 (_ bv2 2)  ) (_ bv2 2))))
(assert (= MV30_0 (= (bvand MV30 (_ bv1 2)  ) (_ bv1 2))))
(assert (= MV30_1 (= (bvand MV30 (_ bv2 2)  ) (_ bv2 2))))
(assert (= MV37_0 (= (bvand MV37 (_ bv1 2)  ) (_ bv1 2))))
(assert (= MV37_1 (= (bvand MV37 (_ bv2 2)  ) (_ bv2 2))))
(assert (= MV41_0 (= (bvand MV41 (_ bv1 3)  ) (_ bv1 3))))
(assert (= MV41_1 (= (bvand MV41 (_ bv2 3)  ) (_ bv2 3))))
(assert (= MV41_2 (= (bvand MV41 (_ bv4 3)  ) (_ bv4 3))))
(assert (= MV48_0 (= (bvand MV48 (_ bv1 3)  ) (_ bv1 3))))
(assert (= MV48_1 (= (bvand MV48 (_ bv2 3)  ) (_ bv2 3))))
(assert (= MV48_2 (= (bvand MV48 (_ bv4 3)  ) (_ bv4 3))))
(assert (= MV60_0 (= (bvand MV60 (_ bv1 2)  ) (_ bv1 2))))
(assert (= MV60_1 (= (bvand MV60 (_ bv2 2)  ) (_ bv2 2))))
(assert (= MV73_0 (= (bvand MV73 (_ bv1 2)  ) (_ bv1 2))))
(assert (= MV73_1 (= (bvand MV73 (_ bv2 2)  ) (_ bv2 2))))
(assert (= MV89_0 (= (bvand MV89 (_ bv1 3)  ) (_ bv1 3))))
(assert (= MV89_1 (= (bvand MV89 (_ bv2 3)  ) (_ bv2 3))))
(assert (= MV89_2 (= (bvand MV89 (_ bv4 3)  ) (_ bv4 3))))
(assert (= MV95_0 (= (bvand MV95 (_ bv1 3)  ) (_ bv1 3))))
(assert (= MV95_1 (= (bvand MV95 (_ bv2 3)  ) (_ bv2 3))))
(assert (= MV95_2 (= (bvand MV95 (_ bv4 3)  ) (_ bv4 3))))
(assert (= MV108_0 (= (bvand MV108 (_ bv1 3)  ) (_ bv1 3))))
(assert (= MV108_1 (= (bvand MV108 (_ bv2 3)  ) (_ bv2 3))))
(assert (= MV108_2 (= (bvand MV108 (_ bv4 3)  ) (_ bv4 3))))
(assert (= MV113_0 (= (bvand MV113 (_ bv1 3)  ) (_ bv1 3))))
(assert (= MV113_1 (= (bvand MV113 (_ bv2 3)  ) (_ bv2 3))))
(assert (= MV113_2 (= (bvand MV113 (_ bv4 3)  ) (_ bv4 3))))
(assert (= MV115_0 (= (bvand MV115 (_ bv1 2)  ) (_ bv1 2))))
(assert (= MV115_1 (= (bvand MV115 (_ bv2 2)  ) (_ bv2 2))))
